p cnf 39 93
4 6 0
-4 -6 0
5 8 0
-5 -8 0
6 4 0
-6 -4 0
7 9 0
-7 -9 0
8 5 0
-8 -5 0
9 7 0
-9 -7 0
-4 -7 5 0
-5 -9 4 0
-6 -5 7 0
-7 -8 6 0
-8 -4 9 0
-9 -6 8 0
10 12 0
-10 -12 0
11 14 0
-11 -14 0
12 10 0
-12 -10 0
13 15 0
-13 -15 0
14 11 0
-14 -11 0
15 13 0
-15 -13 0
-10 -13 11 0
-11 -15 10 0
-12 -11 13 0
-13 -14 12 0
-14 -10 15 0
-15 -12 14 0
16 18 0
-16 -18 0
17 20 0
-17 -20 0
18 16 0
-18 -16 0
19 21 0
-19 -21 0
20 17 0
-20 -17 0
21 19 0
-21 -19 0
-16 -19 17 0
-17 -21 16 0
-18 -17 19 0
-19 -20 18 0
-20 -16 21 0
-21 -18 20 0
-22 5 0
-22 7 0
22 -5 -7 0
-23 4 0
-23 9 0
23 -4 -9 0
-25 6 0
-25 8 0
25 -6 -8 0
-28 11 0
-28 13 0
28 -11 -13 0
-29 10 0
-29 15 0
29 -10 -15 0
-31 12 0
-31 14 0
31 -12 -14 0
-34 17 0
-34 19 0
34 -17 -19 0
-35 16 0
-35 21 0
35 -16 -21 0
-37 18 0
-37 20 0
37 -18 -20 0
4 10 16 0
5 11 17 0
6 12 18 0
7 13 19 0
8 14 20 0
9 15 21 0
-1 22 28 34 0
-1 22 28 34 0
-2 23 29 35 0
-2 23 29 35 0
-3 25 31 37 0
-3 25 31 37 0
